7 8
6 8 4 8 3 3 6 3 2 1 6 7 6 6 6 5 2 8 1 3 3 8 7 3 4 1 7 2 4 5 1 1 4 4 8 7 4 7 2 5 2 7 4 5 1 2 6 2 5 1 5 8 5 7 3 8 
1 2 3 4 5 6 7
2 3 4 5 6 7 1
4 5 6 7 3 2 1
1 2 3 4 7 6 5
1 2 3 4 6 5 7
4 5 3 2 1 6 7
7 5 6 4 3 2 1
2 3 4 5 1 6 7
5 6 8 9 4 3 6
5 6 7 8 9 10 13
3 4 11 3 4 5 6
10 3 5 6 11 12 8
4 5 6 7 8 19 2
4 5 8 7 9 4 10
3 5 9 8 6 7 8
5 8 6 7 10 3 4
